c 
c U(n,d) graph
c graph gen seed     : 1067
c number of vertices : 70
c max number of edges: 2415
c Euclidean distance : 0.200000
c data structure     : sparse
c
c           Graph Stats
c number of vertices  : 70
c nonisolated vertices: 70
c number of edges     : 286
c edge density        : 0.118427
c max degree          : 14
c avg degree          : 8.17
c min degree          : 1
p col 70 286
e 1 64
e 1 58
e 1 49
e 1 39
e 1 37
e 1 22
e 1 12
e 1 11
e 1 8
e 1 7
e 2 69
e 2 48
e 2 38
e 2 36
e 2 15
e 2 13
e 2 6
e 2 3
e 3 69
e 3 48
e 3 38
e 3 36
e 3 16
e 3 15
e 3 13
e 3 6
e 4 70
e 4 68
e 4 57
e 4 52
e 4 50
e 4 45
e 4 26
e 4 24
e 4 21
e 4 10
e 5 63
e 5 48
e 5 13
e 5 6
e 6 69
e 6 63
e 6 48
e 6 36
e 6 15
e 6 13
e 7 64
e 7 53
e 7 49
e 7 42
e 7 39
e 7 11
e 7 8
e 8 64
e 8 53
e 8 49
e 8 39
e 8 37
e 8 22
e 8 12
e 8 11
e 9 67
e 9 65
e 9 51
e 9 43
e 9 41
e 9 34
e 9 32
e 9 31
e 9 27
e 9 23
e 9 18
e 10 68
e 10 52
e 10 24
e 10 21
e 11 67
e 11 49
e 11 39
e 11 37
e 11 27
e 11 23
e 11 18
e 12 64
e 12 58
e 12 49
e 12 37
e 12 22
e 12 16
e 13 69
e 13 63
e 13 48
e 13 36
e 13 15
e 14 70
e 14 65
e 14 62
e 14 52
e 14 45
e 14 41
e 14 31
e 14 30
e 14 26
e 15 69
e 15 48
e 15 38
e 15 36
e 15 20
e 16 63
e 16 58
e 16 36
e 16 22
e 17 47
e 17 46
e 17 43
e 17 38
e 17 36
e 17 20
e 17 19
e 18 67
e 18 55
e 18 51
e 18 43
e 18 39
e 18 34
e 18 27
e 18 23
e 19 47
e 19 46
e 19 38
e 19 36
e 19 20
e 20 47
e 20 46
e 20 38
e 21 68
e 21 52
e 21 24
e 22 64
e 22 58
e 22 49
e 23 67
e 23 65
e 23 55
e 23 51
e 23 43
e 23 34
e 23 32
e 23 27
e 24 70
e 24 68
e 24 62
e 24 52
e 24 50
e 24 45
e 24 26
e 25 66
e 25 59
e 25 56
e 25 55
e 25 54
e 25 44
e 25 29
e 26 70
e 26 68
e 26 65
e 26 62
e 26 57
e 26 52
e 26 50
e 26 45
e 26 41
e 26 31
e 26 30
e 27 67
e 27 65
e 27 51
e 27 43
e 27 37
e 27 34
e 27 32
e 28 64
e 28 53
e 28 49
e 28 42
e 28 33
e 29 66
e 29 59
e 29 56
e 29 54
e 30 70
e 30 65
e 30 62
e 30 57
e 30 50
e 30 45
e 30 43
e 30 41
e 30 34
e 30 32
e 30 31
e 31 70
e 31 65
e 31 62
e 31 57
e 31 50
e 31 45
e 31 43
e 31 41
e 31 34
e 31 32
e 32 65
e 32 43
e 32 41
e 32 34
e 33 53
e 33 42
e 34 67
e 34 65
e 34 51
e 34 43
e 34 41
e 35 60
e 35 56
e 35 54
e 35 44
e 36 69
e 36 58
e 36 48
e 36 47
e 36 38
e 37 58
e 37 43
e 38 69
e 38 47
e 38 46
e 39 67
e 39 53
e 39 49
e 40 66
e 40 61
e 41 70
e 41 65
e 41 62
e 41 50
e 41 45
e 42 64
e 42 53
e 42 49
e 43 65
e 44 60
e 44 56
e 44 54
e 45 70
e 45 65
e 45 62
e 45 57
e 45 52
e 45 50
e 46 57
e 46 47
e 48 69
e 48 63
e 49 64
e 49 53
e 50 70
e 50 65
e 50 62
e 50 57
e 50 52
e 51 67
e 51 55
e 52 70
e 52 68
e 52 62
e 53 64
e 54 66
e 54 59
e 54 56
e 54 55
e 55 67
e 56 59
e 57 70
e 59 66
e 62 70
e 65 70
